
Gurobi 11.0.3 (linux64) logging started Sun Aug 24 14:34:09 2025

Set parameter LogFile to value "/home/yihong/Coding/OR_SUC/SUC_ALSO_results_bigM100000_thread4/case24_ieee_rts_theta0.1_epsilon0.4_gurobi_seed290000_num_gen10_N_WDR50_load_scaling_factor2_ori_T2quadra_cost.txt"
Set parameter TimeLimit to value 3600
Gurobi Optimizer version 11.0.3 build v11.0.3rc0 (linux64 - "Ubuntu 20.04.6 LTS")

CPU model: AMD EPYC 7532 32-Core Processor, instruction set [SSE2|AVX|AVX2]
Thread count: 64 physical cores, 128 logical processors, using up to 4 threads

Academic license 2399124 - for non-commercial use only - registered to yi___@ed.ac.uk
Optimize a model with 8078 rows, 371 columns and 166142 nonzeros
Model fingerprint: 0x32a309df
Model has 20 quadratic constraints
Variable types: 351 continuous, 20 integer (20 binary)
Coefficient statistics:
  Matrix range     [4e-04, 5e+04]
  QMatrix range    [2e-03, 7e-03]
  QLMatrix range   [1e+00, 4e+02]
  Objective range  [1e+00, 1e+00]
  Bounds range     [1e+00, 1e+00]
  RHS range        [5e-01, 1e+04]
Presolve removed 2023 rows and 182 columns
Presolve time: 0.07s
Presolved: 6055 rows, 189 columns, 124457 nonzeros
Presolved model has 20 quadratic constraint(s)
Variable types: 169 continuous, 20 integer (20 binary)

Root relaxation: objective 3.526630e+03, 89 iterations, 0.03 seconds (0.06 work units)

    Nodes    |    Current Node    |     Objective Bounds      |     Work
 Expl Unexpl |  Obj  Depth IntInf | Incumbent    BestBd   Gap | It/Node Time

     0     0 3526.63020    0    4          - 3526.63020      -     -    0s
     0     0 90079.1152    0    7          - 90079.1152      -     -    0s
     0     0 90133.7555    0    5          - 90133.7555      -     -    0s
     0     0 121674.477    0    8          - 121674.477      -     -    0s
H    0     0                    122981.32384 121674.477  1.06%     -    0s
     0     0 121776.644    0    4 122981.324 121776.644  0.98%     -    0s
H    0     0                    121856.21244 121776.644  0.07%     -    0s

Cutting planes:
  Gomory: 1
  Implied bound: 3
  MIR: 7
  Flow cover: 8
  RLT: 2
  Relax-and-lift: 1

Explored 1 nodes (239 simplex iterations) in 0.72 seconds (0.84 work units)
Thread count was 4 (of 128 available processors)

Solution count 2: 121856 122981 

Optimal solution found (tolerance 1.00e-03)
Best objective 1.218562124436e+05, best bound 1.218562124436e+05, gap 0.0000%
